certificates/rado_a11_c36_N29.cnf
c Rad2 upper bound instance: x1 + 11*x2 - x3 = 36, interval [1,29]
p cnf 29 152
1 4 9 0
-1 -4 -9 0
1 5 20 0
-1 -5 -20 0
2 4 10 0
-2 -4 -10 0
2 5 21 0
-2 -5 -21 0
3 4 11 0
-3 -4 -11 0
3 5 22 0
-3 -5 -22 0
1 3 4 0
-1 -3 -4 0
4 12 0
-4 -12 0
4 5 23 0
-4 -5 -23 0
2 3 5 0
-2 -3 -5 0
4 5 13 0
-4 -5 -13 0
5 24 0
-5 -24 0
3 6 0
-3 -6 0
4 6 14 0
-4 -6 -14 0
5 6 25 0
-5 -6 -25 0
3 4 7 0
-3 -4 -7 0
4 7 15 0
-4 -7 -15 0
5 7 26 0
-5 -7 -26 0
3 5 8 0
-3 -5 -8 0
4 8 16 0
-4 -8 -16 0
5 8 27 0
-5 -8 -27 0
3 6 9 0
-3 -6 -9 0
4 9 17 0
-4 -9 -17 0
5 9 28 0
-5 -9 -28 0
3 7 10 0
-3 -7 -10 0
4 10 18 0
-4 -10 -18 0
5 10 29 0
-5 -10 -29 0
3 8 11 0
-3 -8 -11 0
4 11 19 0
-4 -11 -19 0
3 9 12 0
-3 -9 -12 0
4 12 20 0
-4 -12 -20 0
3 10 13 0
-3 -10 -13 0
4 13 21 0
-4 -13 -21 0
3 11 14 0
-3 -11 -14 0
4 14 22 0
-4 -14 -22 0
1 2 15 0
-1 -2 -15 0
3 12 15 0
-3 -12 -15 0
4 15 23 0
-4 -15 -23 0
2 16 0
-2 -16 0
3 13 16 0
-3 -13 -16 0
4 16 24 0
-4 -16 -24 0
2 3 17 0
-2 -3 -17 0
3 14 17 0
-3 -14 -17 0
4 17 25 0
-4 -17 -25 0
2 4 18 0
-2 -4 -18 0
3 15 18 0
-3 -15 -18 0
4 18 26 0
-4 -18 -26 0
2 5 19 0
-2 -5 -19 0
3 16 19 0
-3 -16 -19 0
4 19 27 0
-4 -19 -27 0
2 6 20 0
-2 -6 -20 0
3 17 20 0
-3 -17 -20 0
4 20 28 0
-4 -20 -28 0
2 7 21 0
-2 -7 -21 0
3 18 21 0
-3 -18 -21 0
4 21 29 0
-4 -21 -29 0
2 8 22 0
-2 -8 -22 0
3 19 22 0
-3 -19 -22 0
2 9 23 0
-2 -9 -23 0
3 20 23 0
-3 -20 -23 0
2 10 24 0
-2 -10 -24 0
3 21 24 0
-3 -21 -24 0
2 11 25 0
-2 -11 -25 0
3 22 25 0
-3 -22 -25 0
1 26 0
-1 -26 0
2 12 26 0
-2 -12 -26 0
3 23 26 0
-3 -23 -26 0
1 2 27 0
-1 -2 -27 0
2 13 27 0
-2 -13 -27 0
3 24 27 0
-3 -24 -27 0
1 3 28 0
-1 -3 -28 0
2 14 28 0
-2 -14 -28 0
3 25 28 0
-3 -25 -28 0
1 4 29 0
-1 -4 -29 0
2 15 29 0
-2 -15 -29 0
3 26 29 0
-3 -26 -29 0
