certificates/rado_a11_c36_N29.drat
-26 -29 0
2 3 -29 0
3 -29 0
d 2 3 -29 0
-1 -29 0
d -1 -4 -29 0
-29 0
4 0
-12 0
-2 -3 0
d -5 -2 -3 0
-3 0
6 0
26 0
15 0
9 0
-14 0
-1 0
-18 0
-7 0
-23 0
-17 0
0
